\ This file has been generated by DOcplex
\ ENCODING=ISO-8859-1
\Problem name: random_problem.lp

Minimize
 obj: 226 x0 + 113 x1 - 52 x2 - 26 x3 - 300 x4 - 150 x5 + [ 832 x0^2 + 832 x0*x1
      + 448 x0*x2 + 224 x0*x3 + 1440 x0*x4 + 720 x0*x5 + 208 x1^2 + 224 x1*x2
      + 112 x1*x3 + 720 x1*x4 + 360 x1*x5 + 376 x2^2 + 376 x2*x3 + 944 x2*x4
      + 472 x2*x5 + 94 x3^2 + 472 x3*x4 + 236 x3*x5 + 1600 x4^2 + 1600 x4*x5
      + 400 x5^2 ]/2
Subject To
 c0: 2 x0 + x1 + 2 x2 + x3 + 2 x4 + x5 = 3

Bounds
 0 <= x0 <= 1
 0 <= x1 <= 1
 0 <= x2 <= 1
 0 <= x3 <= 1
 0 <= x4 <= 1
 0 <= x5 <= 1

Binaries
 x0 x1 x2 x3 x4 x5
End
